160056.91,54.5,67.58
157434.41,55.4,68.71
170154.51,51.26,63.57
173403.89,50.3,62.38
156557.05,55.71,69.09
163788.71,53.26,66.04
161330.34,54.07,67.05
171587.46,50.83,63.04
167675.48,52.02,64.51
177722.27,49.08,60.86
160086.64,54.49,67.57
162614.03,53.64,66.52
160968.65,54.19,67.2
179007.12,48.73,60.43
173876.33,50.17,62.21
160764.8,54.26,67.28
166558.48,52.37,64.94
163180.5,53.45,66.29
153352.32,56.88,70.54
156916.77,55.59,68.93
